problems/VanDerWaerdenNumbers/VanDerWaerden-models/compact/O2/lingeling/model_1-k3l4n43-solution000001.solution
language Essence 1.3

letting p be
        partition({1, 2, 4, 6, 9, 11, 13, 19, 20, 21, 25, 26, 28, 30, 36, 38, 39, 41, 42, 43},
                  {3, 7, 8, 15, 16, 18, 27, 31, 32, 35, 37}, {5, 10, 12, 14, 17, 22, 23, 24, 29, 33, 34, 40})
